% File represents an instance of a Composite Structure problem to be solved by a CP framework
% Created on 2025-03-26 10:41:22.557
T = 50;
n = 16;
m = 24;
edges = [(1, 2),
(5, 6),
(9, 10),
(13, 14),
(2, 3),
(6, 7),
(10, 11),
(14, 15),
(4, 3),
(8, 7),
(11, 12),
(16, 15),
(5, 1),
(9, 5),
(9, 13),
(6, 2),
(10, 6),
(10, 14),
(7, 3),
(11, 7),
(11, 15),
(8, 4),
(8, 12),
(16, 12)];
counts = [|6, 18, 6, 10,
|6, 16, 6, 6,
|6, 14, 6, 2,
|6, 14, 6, 8,
|6, 20, 6, 14,
|6, 20, 6, 8,
|6, 16, 6, 6,
|6, 16, 6, 10,
|6, 20, 6, 18,
|6, 20, 6, 12,
|6, 18, 6, 8,
|6, 16, 6, 6,
|6, 16, 6, 16,
|6, 16, 6, 10,
|6, 14, 6, 6,
|6, 16, 6, 8|];
